
Gurobi 7.5.2 (linux64, Python) logging started Wed Sep 26 21:24:53 2018

Academic license - for non-commercial use only

Gurobi 7.5.2 (linux64, Python) logging started Wed Sep 26 21:25:34 2018

Academic license - for non-commercial use only

Gurobi 7.5.2 (linux64, Python) logging started Wed Sep 26 21:26:57 2018

Academic license - for non-commercial use only

Gurobi 7.5.2 (linux64, Python) logging started Wed Sep 26 21:37:17 2018

Academic license - for non-commercial use only

Gurobi 7.5.2 (linux64, Python) logging started Wed Sep 26 22:47:55 2018

Academic license - for non-commercial use only

Gurobi 7.5.2 (linux64, Python) logging started Wed Sep 26 22:48:02 2018

Academic license - for non-commercial use only

Gurobi 7.5.2 (linux64, Python) logging started Wed Sep 26 22:52:43 2018

Academic license - for non-commercial use only

Gurobi 7.5.2 (linux64, Python) logging started Wed Sep 26 22:56:34 2018

Academic license - for non-commercial use only

Gurobi 7.5.2 (linux64, Python) logging started Wed Sep 26 23:00:08 2018

Academic license - for non-commercial use only

Gurobi 7.5.2 (linux64, Python) logging started Wed Sep 26 23:03:16 2018

Academic license - for non-commercial use only

Gurobi 7.5.2 (linux64, Python) logging started Wed Sep 26 23:04:20 2018

Academic license - for non-commercial use only

Gurobi 7.5.2 (linux64, Python) logging started Wed Sep 26 23:12:11 2018

Academic license - for non-commercial use only

Gurobi 7.5.2 (linux64, Python) logging started Wed Sep 26 23:12:25 2018

Academic license - for non-commercial use only

Gurobi 7.5.2 (linux64, Python) logging started Wed Sep 26 23:39:29 2018

Academic license - for non-commercial use only

Gurobi 7.5.2 (linux64, Python) logging started Wed Sep 26 23:39:40 2018

Academic license - for non-commercial use only

Gurobi 7.5.2 (linux64, Python) logging started Wed Sep 26 23:40:12 2018

Academic license - for non-commercial use only

Gurobi 7.5.2 (linux64, Python) logging started Wed Sep 26 23:43:17 2018

Academic license - for non-commercial use only

Gurobi 7.5.2 (linux64, Python) logging started Wed Sep 26 23:43:56 2018

Academic license - for non-commercial use only

Gurobi 7.5.2 (linux64, Python) logging started Wed Sep 26 23:44:59 2018

Academic license - for non-commercial use only

Gurobi 7.5.2 (linux64, Python) logging started Wed Sep 26 23:46:19 2018

Academic license - for non-commercial use only

Gurobi 7.5.2 (linux64, Python) logging started Wed Sep 26 23:47:38 2018

Academic license - for non-commercial use only

Gurobi 7.5.2 (linux64, Python) logging started Wed Sep 26 23:48:26 2018

Academic license - for non-commercial use only
